100 8
774 338
158 733
575 567
148 728
645 322
584 153
493 855
629 680
664 772
68 566
313 515
655 130
656 96
250 573
305 475
180 146
257 247
139 199
771 283
536 597
539 338
489 770
296 74
635 383
248 586
155 150
828 783
96 433
220 517
702 844
754 258
388 309
262 656
648 170
691 260
170 71
725 211
252 365
548 530
487 429
741 236
233 422
708 504
592 581
461 543
686 231
824 852
621 431
143 493
165 144
297 448
483 227
387 812
169 358
140 747
124 619
456 198
691 576
348 425
611 175
413 255
618 607
388 450
513 740
370 276
355 869
618 507
171 71
667 753
563 523
273 222
162 602
636 531
640 325
225 154
211 234
517 755
428 366
796 764
801 324
307 265
802 357
276 425
277 404
700 101
188 722
694 477
201 386
804 725
727 326
535 530
844 496
628 75
434 795
153 384
568 477
614 226
420 924
214 379
482 819
